18,7	0,0	14,4	5,6	0,0	0,0	0,0	0,0	0,0	14,3
13,3	11,9	0,0	13,7	19,5	0,0	0,0	12,1	0,0	0,0
0,0	0,0	15,4	0,0	10,0	15,4	0,0	0,0	16,2	0,0
20,0	0,0	16,9	0,0	0,0	0,0	18,0	0,0	0,0	0,0
0,0	6,9	0,0	8,0	13,1	0,0	0,0	12,9	0,0	0,0
0,0	15,7	10,2	0,0	5,2	18,0	0,0	0,0	14,2	0,0
0,0	18,9	0,0	8,7	0,0	0,0	8,0	0,0	0,0	8,4
7,9	0,0	15,6	0,0	0,0	0,0	0,0	0,0	0,0	13,6
0,0	12,9	0,0	19,5	8,8	0,0	0,0	6,3	0,0	0,0
0,0	0,0	12,5	0,0	0,0	13,6	9,6	0,0	0,0	7,3
									
4,9	3,8	4,6	3,4	3,6	3,6	2,6	3,8	3,2	4,9
